results/x-long/X-n162-k11.vrp_seed-5.out
14153	1165
